Translating instance to solver...

Set parameter TimeLimit to value 28800
Gurobi Optimizer version 11.0.2 build v11.0.2rc0 (linux64 - "Ubuntu 22.04.4 LTS")

CPU model: Intel(R) Xeon(R) Gold 5120 CPU @ 2.20GHz, instruction set [SSE2|AVX|AVX2|AVX512]
Thread count: 28 physical cores, 56 logical processors, using up to 28 threads

Academic license 2463511 - for non-commercial use only - registered to lu___@cefet-rj.br
Optimize a model with 145385 rows, 68063 columns and 326945 nonzeros
Model fingerprint: 0x9e177eba
Variable types: 1 continuous, 68062 integer (67980 binary)
Coefficient statistics:
  Matrix range     [1e+00, 1e+05]
  Objective range  [3e-01, 8e-01]
  Bounds range     [1e+00, 8e+01]
  RHS range        [1e+00, 8e+01]
Presolve removed 123619 rows and 58773 columns
Presolve time: 3.51s
Presolved: 21766 rows, 9290 columns, 64998 nonzeros
Variable types: 0 continuous, 9290 integer (9209 binary)

Root relaxation: objective 1.493564e+00, 2178 iterations, 0.18 seconds (0.19 work units)

    Nodes    |    Current Node    |     Objective Bounds      |     Work
 Expl Unexpl |  Obj  Depth IntInf | Incumbent    BestBd   Gap | It/Node Time

     0     0    1.49356    0  110          -    1.49356      -     -    5s
H    0     0                       6.3706920    1.49356  76.6%     -    6s
     0     0    1.67356    0  211    6.37069    1.67356  73.7%     -    6s
H    0     0                       2.1235640    1.67356  21.2%     -    7s
H    0     0                       1.9794550    1.67356  15.5%     -    7s
     0     0    1.67356    0  180    1.97946    1.67356  15.5%     -    7s
     0     0    1.67356    0  109    1.97946    1.67356  15.5%     -    8s
H    0     0                       1.6735640    1.67356  0.00%     -    8s
     0     0    1.67356    0  101    1.67356    1.67356  0.00%     -    8s

Cutting planes:
  Learned: 20
  Gomory: 1
  Lift-and-project: 1
  Implied bound: 80
  Clique: 1
  MIR: 114
  StrongCG: 8
  RLT: 20
  Relax-and-lift: 15
  BQP: 4

Explored 1 nodes (11663 simplex iterations) in 8.84 seconds (6.80 work units)
Thread count was 28 (of 56 available processors)

Solution count 4: 1.67356 1.97945 2.12356 6.37069 

Optimal solution found (tolerance 1.00e-04)
Best objective 1.673564000000e+00, best bound 1.673563820000e+00, gap 0.0000%

Solver Wallclock Time (for this epsilon): 8.858489036560059 s
Python wallclock Time (for this epsilon): 19.83838677406311 s


Total Elapsed Time (since program call): 1886.2344241142273 s

Results:

I = 1.6735639999999998 mA
C = 60.0 points
C ~= 24.0 km^2

Minimum Epsilon for this instance = 10
Maximum Epsilon for this instance = 100

Current Epsilon = 60


Preprocessing Time (for this epsilon): 0.013067007064819336 s


Updated solution vectors:
sol_I = [-1.223564,-1.223564,-1.6735639999999998,-1.6735635949810057,-1.6735639999999998,-1.6735639999999998]
sol_C = [10.0,20.0,52.0,56.9999839800992,51.0,60.0]
sol_eps = [10,20,30,40,50,60]
sol_gap = [0.0,0.0,0.0,0.0,0.0,1.7999999935014444e-07]
